sifdecoder -A pc64.lnx.gfo -st   A2NSDSSL

 Problem name: A2NSDSSL

 Double precision version will be formed

 The objective function uses 2 linear groups
 
 There are 20004 linear equality constraints
 
 There are 15004 free variables
 There are 10000 variables bounded only from below 
 There are 35008 fixed variables
 
 
 File successfully decoded
 CUTEST: tools (double precision version) compiled successfully
 CUTEst: ipopt (double precision version) compiled successfully

******************************************************************************
This program contains Ipopt, a library for large-scale nonlinear optimization.
 Ipopt is released as open source code under the Eclipse Public License (EPL).
         For more information visit http://projects.coin-or.org/Ipopt
******************************************************************************

This is Ipopt version trunk, running with linear solver ma57.

Number of nonzeros in equality constraint Jacobian...:    78027
Number of nonzeros in inequality constraint Jacobian.:        0
Number of nonzeros in Lagrangian Hessian.............:    30004

Total number of variables............................:    25004
                     variables with only lower bounds:    10000
                variables with lower and upper bounds:        0
                     variables with only upper bounds:        0
Total number of equality constraints.................:    20004
Total number of inequality constraints...............:        0
        inequality constraints with only lower bounds:        0
   inequality constraints with lower and upper bounds:        0
        inequality constraints with only upper bounds:        0

iter    objective    inf_pr   inf_du lg(mu)  ||d||  lg(rg) alpha_du alpha_pr  ls
   0  4.9999900e-01 6.35e+02 6.25e-01  -1.0 0.00e+00    -  0.00e+00 0.00e+00   0
   1  5.0161752e-01 6.34e+02 1.12e+00  -1.0 1.39e+02    -  9.99e-04 2.03e-03h  1
   2  5.7851312e-01 6.33e+02 1.11e+00  -1.0 7.77e+01    -  1.73e-03 1.67e-03f  1
   3  7.0272132e-01 6.31e+02 1.11e+00  -1.0 4.79e+01    -  1.91e-03 1.89e-03f  1
   4  8.5415709e-01 6.30e+02 1.11e+00  -1.0 4.83e+01    -  1.88e-03 2.03e-03f  1
   5  1.0389444e+00 6.29e+02 1.11e+00  -1.0 7.82e+01    -  2.44e-03 2.31e-03f  1
   6  1.3025412e+00 6.27e+02 1.10e+00  -1.0 6.66e+01    -  2.84e-03 3.09e-03f  1
   7  1.7204504e+00 6.24e+02 2.05e+00  -1.0 6.21e+01    -  3.09e-03 4.58e-03f  1
   8  2.2995265e+00 6.20e+02 2.03e+00  -1.0 5.96e+01    -  5.08e-03 5.86e-03f  1
   9  3.2748170e+00 6.15e+02 2.44e+00  -1.0 5.71e+01    -  6.29e-03 8.98e-03f  1
iter    objective    inf_pr   inf_du lg(mu)  ||d||  lg(rg) alpha_du alpha_pr  ls
  10  4.8261732e+00 6.07e+02 4.37e+00  -1.0 4.71e+01    -  7.65e-03 1.27e-02f  1
  11  7.6724927e+00 5.95e+02 4.21e+00  -1.0 3.13e+01    -  1.60e-02 2.03e-02f  1
  12  1.3984801e+01 5.72e+02 3.97e+00  -1.0 1.32e+01    -  2.56e-02 3.75e-02f  1
  13  1.8099646e+01 5.59e+02 3.85e+00  -1.0 1.57e+01    -  1.87e-02 2.29e-02f  1
  14  3.4751565e+01 5.17e+02 4.02e+00  -1.0 2.03e+01    -  1.49e-01 7.63e-02f  1
  15  7.8815432e+01 4.25e+02 3.55e+00  -1.0 1.15e+01    -  2.23e-01 1.76e-01f  1
  16  9.1460320e+01 4.02e+02 3.99e+00  -1.0 7.47e+01    -  2.10e-01 5.51e-02f  1
  17  3.7487142e+02 4.32e+01 7.57e-01  -1.0 1.60e+01    -  8.24e-01 8.93e-01f  1
  18  3.8935021e+02 3.27e+01 6.28e+01  -1.0 3.14e+01    -  6.44e-01 2.43e-01f  1
  19  4.1464790e+02 1.50e+01 2.01e+01  -1.0 2.21e+02    -  3.09e-01 5.42e-01f  1
iter    objective    inf_pr   inf_du lg(mu)  ||d||  lg(rg) alpha_du alpha_pr  ls
  20  4.1976157e+02 1.20e+01 1.70e+02  -1.0 7.58e+01    -  6.15e-01 1.97e-01f  1
  21  4.2429920e+02 9.55e+00 2.57e+02  -1.0 1.24e+02    -  4.37e-01 2.06e-01f  1
  22  4.2579232e+02 8.76e+00 4.64e+02  -1.0 2.50e+02    -  4.23e-01 8.28e-02f  1
  23  4.2713895e+02 8.10e+00 7.36e+02  -1.0 3.29e+02    -  4.93e-01 7.57e-02f  1
  24  4.3022772e+02 6.73e+00 6.21e+02  -1.0 6.76e+02    -  1.80e-01 1.69e-01f  1
  25  4.3183162e+02 6.06e+00 7.41e+02  -1.0 2.55e+03    -  2.94e-01 1.01e-01f  1
  26  4.3205806e+02 5.97e+00 1.06e+03  -1.0 3.41e+03    -  3.23e-01 1.39e-02h  1
  27  4.3298691e+02 5.68e+00 1.18e+03  -1.0 6.76e+03    -  2.08e-01 4.89e-02f  1
  28  4.3370628e+02 5.48e+00 1.40e+03  -1.0 1.44e+03    -  2.73e-01 3.54e-02f  1
  29  4.3804844e+02 4.33e+00 1.06e+03  -1.0 4.49e+03    -  1.66e-01 2.10e-01f  1
iter    objective    inf_pr   inf_du lg(mu)  ||d||  lg(rg) alpha_du alpha_pr  ls
  30  4.4306673e+02 9.33e-01 3.13e+02  -1.0 1.53e+03    -  4.25e-01 7.84e-01h  1
  31  4.4371817e+02 6.64e-01 2.89e+03  -1.0 7.43e+03    -  7.40e-01 2.89e-01f  1
  32  4.4533127e+02 5.68e-01 3.65e+03  -1.0 3.37e+04    -  2.66e-01 1.45e-01f  1
  33  4.4621788e+02 5.29e-01 7.01e+03  -1.0 2.69e+04    -  3.87e-01 6.76e-02f  1
  34  4.4767984e+02 4.92e-01 1.17e+04  -1.0 7.85e+04    -  4.84e-01 7.13e-02f  1
  35  4.5164278e+02 4.36e-01 1.28e+04  -1.0 2.38e+04    -  3.01e-01 1.13e-01f  1
Reallocating memory for MA57: lfact (881985)
  36  4.4262081e+02 1.08e-02 1.01e+04  -1.0 2.55e+04    -  2.75e-01 9.75e-01h  1
Reallocating memory for MA57: lfact (1621811)
  37  4.4258735e+02 1.02e-02 2.65e+05  -1.0 2.69e+05    -  5.55e-01 6.13e-02f  2
Reallocating memory for MA57: lfact (2679984)
  38  4.4533057e+02 2.15e-07 5.83e-05  -1.0 5.83e-03  -2.0 1.00e+00 1.00e+00f  1
  39  3.6574937e+02 1.81e-07 2.20e-01  -3.8 3.19e+02    -  1.59e-01 1.59e-01f  1
iter    objective    inf_pr   inf_du lg(mu)  ||d||  lg(rg) alpha_du alpha_pr  ls
  40  1.6364741e+01 4.74e-10 1.41e-03  -3.8 4.22e-01  -2.5 1.00e+00 1.00e+00f  1
  41  2.5738133e+00 6.27e-10 4.39e+01  -5.7 2.19e-01  -3.0 9.99e-01 9.99e-01f  1
  42  4.3177992e-01 1.71e-10 2.74e+01  -5.7 1.06e-01  -3.4 9.86e-01 9.92e-01f  1
  43  4.3162408e-01 1.75e-10 1.20e+06  -5.7 3.45e+06    -  1.14e-02 1.05e-04f  1
  44  4.3019402e-01 1.81e-10 1.76e+06  -5.7 1.58e+10    -  6.92e-04 1.35e-04H  1
  45  4.2120625e-01 1.06e-09 1.25e+06  -5.7 2.54e+09    -  1.91e-04 4.59e-04f  1
  46  5.6339205e-02 3.79e-10 2.29e-05  -5.7 1.85e-01  -3.9 1.00e+00 1.00e+00f  1
  47r 5.6339205e-02 3.79e-10 1.00e+03  -5.7 0.00e+00    -  0.00e+00 3.83e-07R 10
  48r 7.7533618e-02 7.26e-10 1.08e+01  -5.7 1.23e-01    -  9.89e-01 1.00e+00f  1
  49r 8.7450485e-01 3.08e-09 2.85e+01  -5.7 4.04e-02    -  9.66e-01 1.00e+00f  1
iter    objective    inf_pr   inf_du lg(mu)  ||d||  lg(rg) alpha_du alpha_pr  ls
  50r 2.2447619e+01 1.63e-09 3.58e+01  -5.7 1.04e+00    -  9.08e-01 1.00e+00f  1
  51r 1.9761024e+02 7.71e-10 2.50e+01  -5.7 1.86e-01    -  8.93e-01 1.00e+00f  1
  52r 4.7793660e+02 6.53e-10 1.75e-09  -5.7 2.02e-01    -  1.00e+00 1.00e+00f  1
  53r 2.7154379e+02 6.51e-10 1.85e+01  -8.6 5.07e-01    -  1.00e+00 8.62e-01f  1
  54r 2.6150706e+02 1.04e-09 2.43e+00  -8.6 8.88e-03    -  9.36e-01 1.00e+00f  1
  55r 1.9376536e+02 5.13e-10 1.14e-13  -8.6 1.74e-01    -  1.00e+00 1.00e+00h  1
  56r 9.6881402e+01 6.95e-10 6.55e-07 -11.0 2.46e-01    -  1.00e+00 1.00e+00f  1
  57r 9.1589419e+01 7.41e-10 1.14e-13 -11.0 1.41e-02    -  1.00e+00 1.00e+00h  1
  58r 4.7776331e+01 2.33e-10 1.14e-13 -11.0 1.12e-01    -  1.00e+00 1.00e+00h  1
  59  4.7776331e+01 2.33e-10 1.19e+06  -5.7 8.74e+02    -  1.84e-04 2.06e-11f 24
iter    objective    inf_pr   inf_du lg(mu)  ||d||  lg(rg) alpha_du alpha_pr  ls
  60  4.7776331e+01 2.33e-10 1.19e+06  -5.7 8.36e+02    -  2.92e-04 8.40e-14f 32
  61  4.7776331e+01 2.33e-10 1.19e+06  -5.7 4.20e+02    -  2.31e-03 1.68e-13f 32
  62  4.7776331e+01 2.33e-10 1.17e+06  -5.7 7.17e+01    -  9.63e-01 8.15e-12f 29
  63  8.5683802e+00 2.29e-10 2.41e+05  -5.7 5.77e+00    -  9.96e-01 7.94e-01f  1
  64  8.5683802e+00 2.84e-10 9.97e+05  -5.7 2.28e-01  -4.4 1.00e+00 5.57e-10f 31
  65  8.5683801e+00 1.46e-10 7.91e+05  -5.7 3.57e-02  -4.0 1.00e+00 1.13e-08f 27
  66  8.5683801e+00 1.58e-10 8.06e+05  -5.7 7.99e-02  -4.4 1.00e+00 3.25e-09f 29
  67  4.6940123e+00 2.77e-10 4.41e+05  -5.7 3.64e-02  -4.0 1.00e+00 4.52e-01f  2
  68  4.6940123e+00 2.72e-10 4.41e+05  -5.7 7.85e-02  -4.5 1.00e+00 1.63e-09f 30
  69  4.2606242e-01 4.44e-10 4.05e+04  -5.7 2.25e+00  -5.0 1.00e+00 9.08e-01f  1
iter    objective    inf_pr   inf_du lg(mu)  ||d||  lg(rg) alpha_du alpha_pr  ls
  70 -2.8336530e-03 1.86e-09 9.34e-07  -5.7 2.59e-01  -5.4 1.00e+00 1.00e+00f  1
  71 -8.4147388e-02 3.64e-09 6.00e-02  -8.6 1.09e-02  -5.9 9.99e-01 1.00e+00f  1
  72 -9.5654906e-02 4.35e-09 1.25e-08  -8.6 3.12e-02  -6.4 1.00e+00 1.00e+00f  1
  73 -7.4311973e-02 4.43e-09 3.25e+01  -8.6 9.81e-02  -6.9 4.82e-01 1.00e+00h  1
  74 -8.5273058e-02 4.43e-09 4.85e+04  -8.6 1.53e+12    -  7.74e-07 7.31e-07f  1
  75 -1.9040856e-01 4.43e-09 6.82e+06  -8.6 3.69e+12    -  3.63e-07 3.04e-06f  1
  76 -1.7884758e-01 4.97e-09 4.88e+06  -8.6 6.01e+02  -7.4 2.85e-01 1.05e-01h  1
  77 -7.0019174e-02 4.47e-09 3.76e+06  -8.6 1.02e+00  -7.8 2.28e-01 1.00e+00h  1
  78 -9.4404681e-02 4.54e-09 2.79e+06  -8.6 2.97e+00  -8.3 2.58e-01 1.00e+00f  1
  79 -9.4686289e-02 5.39e-09 2.22e+06  -8.6 9.22e+00  -8.8 2.05e-01 1.00e+00h  1
iter    objective    inf_pr   inf_du lg(mu)  ||d||  lg(rg) alpha_du alpha_pr  ls
  80 -9.6511652e-02 4.86e-09 1.81e+06  -8.6 2.68e+01  -9.3 1.83e-01 1.00e+00f  1
  81 -9.6659204e-02 4.46e-09 1.73e+06  -8.6 7.15e+01  -9.7 4.72e-02 1.17e-01H  1
  82 -9.7719860e-02 1.26e-08 1.42e+06  -8.6 2.37e+01  -9.3 1.78e-01 1.00e+00f  1
  83 -1.0647736e-01 6.91e-09 1.14e+06  -8.6 7.46e+01  -9.8 2.00e-01 5.26e-01H  1
  84 -1.0461897e-01 1.90e-08 1.02e+06  -8.6 1.70e+01  -9.4 1.06e-01 2.25e-01h  3
  85 -1.0644235e-01 3.41e-09 9.09e+05  -8.6 1.00e+02  -9.8 1.05e-01 2.79e-01H  1
  86 -1.0644233e-01 3.85e-09 7.73e+05  -8.6 1.89e+01  -9.4 1.50e-01 1.91e-06f 20
  87 -1.4340307e-01 7.48e-09 7.39e+05  -8.6 1.64e+02  -9.9 4.37e-02 1.65e-01H  1
  88 -1.4340303e-01 7.17e-09 7.37e+05  -8.6 2.10e+01  -9.5 3.25e-03 9.54e-07h 21
  89 -1.2403431e-01 3.91e-08 7.37e+05  -8.6 1.80e+05  -9.9 1.32e-04 2.30e-03h  1
iter    objective    inf_pr   inf_du lg(mu)  ||d||  lg(rg) alpha_du alpha_pr  ls
  90 -1.2403428e-01 3.91e-08 7.12e+05  -8.6 4.61e+01  -9.5 3.40e-02 1.66e-06h 20
  91 -1.2651492e-01 2.51e-07 7.00e+05  -8.6 9.31e+03  -9.1 1.57e-02 3.29e-02f  2
  92 -1.0842027e-01 5.20e-09 6.60e+05  -8.6 3.69e+02  -9.6 5.77e-02 6.98e-01h  1
  93 -1.0842026e-01 1.53e-08 5.21e+05  -8.6 1.02e+01  -9.1 2.10e-01 1.27e-06f 20
  94 -1.0345035e-01 2.73e-09 4.57e+05  -8.6 3.30e+01  -9.6 1.22e-01 7.42e-01H  1
  95 -9.6822673e-02 1.90e-08 3.84e+05  -8.6 1.10e+01  -9.2 1.60e-01 1.00e+00H  1
  96 -1.0905563e-01 5.30e-09 3.20e+05  -8.6 3.96e+01  -9.7 1.68e-01 1.00e+00F  1
  97 -9.9647794e-02 5.91e-09 2.91e+05  -8.6 1.20e+01  -9.2 9.15e-02 1.00e+00h  1
  98 -1.1482315e-01 2.21e-08 2.32e+05  -8.6 4.92e+01  -9.7 2.03e-01 9.31e-01H  1
  99 -1.1482313e-01 1.61e-08 1.99e+05  -8.6 6.12e+01  -9.3 1.40e-01 9.54e-07f 21
iter    objective    inf_pr   inf_du lg(mu)  ||d||  lg(rg) alpha_du alpha_pr  ls
 100 -1.1826302e-01 6.67e-09 1.81e+05  -8.6 6.27e+01  -9.8 8.96e-02 2.51e-01H  1
 101 -1.1826300e-01 7.03e-09 1.79e+05  -8.6 1.84e+01  -9.3 1.12e-02 9.54e-07f 21
 102 -1.2430589e-01 1.27e-07 1.79e+05  -8.6 1.13e+05  -9.8 2.06e-03 7.49e-03f  2
 103 -1.0664962e-01 5.98e-09 1.57e+05  -8.6 1.17e+02  -9.4 1.25e-01 7.46e-01h  1
 104 -1.4647464e-01 6.27e-09 1.35e+05  -8.6 1.62e+02  -9.9 1.38e-01 8.44e-01H  1
 105 -1.4647463e-01 7.36e-09 1.35e+05  -8.6 1.94e+01  -9.4 3.53e-03 2.38e-07h 23
 106 -1.4647462e-01 6.27e-09 1.35e+05  -8.6 1.58e+05  -9.9 3.67e-05 3.92e-10h 24
 107 -1.2472229e-01 8.94e-09 1.31e+05  -8.6 2.59e+01  -9.5 2.51e-02 5.00e-01h  2
 108 -9.8588980e-02 6.46e-09 1.06e+05  -8.6 1.28e+01  -9.1 1.89e-01 1.00e+00h  1
 109 -1.0011914e-01 8.73e-09 7.60e+04  -8.6 2.61e+01  -9.5 2.87e-01 1.00e+00F  1
iter    objective    inf_pr   inf_du lg(mu)  ||d||  lg(rg) alpha_du alpha_pr  ls
 110 -9.8376340e-02 9.93e-09 6.49e+04  -8.6 8.79e+00  -9.1 1.46e-01 1.00e+00H  1
 111 -1.0204982e-01 5.17e-09 4.52e+04  -8.6 3.13e+01  -9.6 3.05e-01 1.00e+00F  1
 112 -1.0035409e-01 9.03e-09 4.29e+04  -8.6 1.14e+01  -9.2 5.15e-02 1.00e+00h  1
 113 -9.9999460e-02 1.35e-08 3.35e+04  -8.6 3.95e+01  -9.7 2.20e-01 2.20e-01s 22
 114 -1.0003402e-01 6.11e-09 3.01e+04  -8.6 1.25e+01  -9.2 9.99e-02 9.99e-02s 22
 115 -9.9331462e-02 4.66e-09 2.41e+04  -8.6 6.13e+01  -9.7 2.01e-01 2.01e-01s 22
 116 -9.9737038e-02 7.93e-09 1.57e+04  -8.6 1.53e+01  -9.3 3.47e-01 3.47e-01s 22
 117 -9.7823112e-02 8.43e-09 1.12e+04  -8.6 6.26e+01  -9.8 2.89e-01 2.89e-01s 22
 118 -9.8535247e-02 4.35e-09 8.05e+03  -8.6 1.44e+01  -9.3 2.80e-01 2.80e-01s 22
 119 -9.7627628e-02 4.47e-09 7.50e+03  -8.6 9.08e+01  -9.8 6.90e-02 6.90e-02s 22
iter    objective    inf_pr   inf_du lg(mu)  ||d||  lg(rg) alpha_du alpha_pr  ls
 120 -9.8528691e-02 5.01e-09 5.19e+03  -8.6 1.65e+01  -9.4 3.08e-01 3.08e-01s 22
 121 -9.7123099e-02 6.13e-09 4.96e+03  -8.6 1.51e+02  -9.9 4.33e-02 4.33e-02s 22
 122 -9.8042805e-02 1.47e-08 3.58e+03  -8.6 1.90e+01  -9.4 2.79e-01 2.79e-01s 22
 123 -9.5946287e-02 3.64e-09 3.50e+03  -8.6 3.55e+02  -9.9 2.02e-02 2.02e-02s 22
 124r-9.5946287e-02 3.64e-09 1.00e+03  -8.4 0.00e+00  -9.5 0.00e+00 0.00e+00R  1
 125r-8.6093001e-02 1.04e-08 9.99e+02  -8.4 1.70e-02    -  3.02e-03 1.30e-03f  1
 126r-8.4277664e-02 4.88e-09 1.00e+03  -8.4 1.70e-02    -  3.72e-04 3.24e-03f  1
 127r-8.3982619e-02 4.49e-09 9.95e+02  -8.4 1.70e-02    -  2.35e-03 1.66e-03f  1
 128r-8.4171272e-02 4.60e-09 1.01e+03  -8.4 1.69e-02    -  1.32e-03 2.78e-03f  1
 129r-8.4257746e-02 6.38e-09 1.04e+03  -8.4 1.69e-02    -  2.46e-03 3.20e-03f  1
iter    objective    inf_pr   inf_du lg(mu)  ||d||  lg(rg) alpha_du alpha_pr  ls
 130r-8.4259533e-02 6.74e-09 1.04e+03  -8.4 1.68e-02    -  3.39e-03 6.28e-05h  6
 131r-8.4268108e-02 4.01e-09 1.04e+03  -8.4 1.68e-02    -  4.92e-04 4.10e-05h  7
 132r-8.4268108e-02 4.01e-09 1.03e+03  -8.4 1.68e-02    -  9.90e-04 1.19e-09h 22
 133r-8.4270267e-02 4.70e-09 1.03e+03  -8.4 1.68e-02    -  3.46e-03 1.18e-05h  9
 134r-8.4896723e-02 5.33e-09 1.03e+03  -8.4 1.68e-02    -  2.43e-03 5.35e-03f  1
 135r-8.4942955e-02 2.66e-09 1.03e+03  -8.4 1.67e-02    -  1.63e-03 4.12e-04h  4
 136r-8.4942961e-02 2.66e-09 1.03e+03  -8.4 1.67e-02    -  1.81e-03 4.43e-08h 17
 137r-8.5594198e-02 1.22e-08 1.02e+03  -8.4 1.67e-02    -  1.09e-03 4.91e-03f  1
 138r-8.5650889e-02 8.01e-09 1.02e+03  -8.4 1.66e-02    -  2.43e-03 1.71e-03h  1
 139r-8.5730604e-02 4.42e-09 1.02e+03  -8.4 1.66e-02    -  4.57e-04 2.45e-04h  4
iter    objective    inf_pr   inf_du lg(mu)  ||d||  lg(rg) alpha_du alpha_pr  ls
 140r-8.5800799e-02 3.28e-09 1.02e+03  -8.4 1.66e-02    -  2.65e-03 2.49e-04h  4
 141r-8.5833023e-02 3.73e-09 1.01e+03  -8.4 1.66e-02    -  4.26e-03 2.17e-04h  5
 142r-8.6735512e-02 1.39e-08 1.01e+03  -8.4 1.66e-02    -  3.47e-04 4.86e-03f  1
 143r-8.6788999e-02 9.11e-09 1.01e+03  -8.4 1.65e-02    -  3.95e-03 2.91e-03h  1
 144 -8.6790167e-02 1.02e-08 1.35e+07  -8.6 8.19e+04    -  1.51e-01 8.09e-07f  1
 145 -9.7568636e-02 1.99e-08 1.12e+09  -8.6 6.15e+03    -  2.65e-04 1.00e+00f  1
 146 -9.7570724e-02 9.74e-09 1.06e+09  -8.6 6.15e+03    -  9.99e-01 5.10e-02h  1
 147 -2.1060211e-01 8.04e-09 8.03e+06  -8.6 1.66e+07    -  2.90e-01 1.00e+00f  1
Reallocating memory for MA57: lfact (8774929)
 148 -2.1065836e-01 9.20e-09 2.25e+04  -8.6 4.40e+01 -10.0 9.97e-01 1.00e+00h  1
 149 -2.2177766e-01 7.86e-09 1.94e+04  -8.6 3.09e+02  -9.5 1.33e-01 9.87e-03f  1
iter    objective    inf_pr   inf_du lg(mu)  ||d||  lg(rg) alpha_du alpha_pr  ls
 150 -2.2213661e-01 1.02e-08 8.33e+02  -8.6 7.21e+00  -9.1 9.57e-01 1.00e+00F  1
 151 -2.2202916e-01 9.07e-09 1.04e+02  -8.6 6.14e+01  -9.6 8.67e-01 1.91e-03h  6
 152 -2.2293168e-01 7.19e-09 4.78e+00  -8.6 9.68e-03  -4.6 9.52e-01 1.00e+00f  1
 153 -2.1624193e-01 1.19e-08 2.46e+03  -8.6 1.98e-02  -5.1 9.89e-02 5.44e-01h  1
 154 -2.1624192e-01 9.21e-09 1.86e+03  -8.6 1.03e-02  -5.6 8.77e-01 1.91e-06f 20
 155 -2.1062935e-01 9.93e-09 4.40e-09  -8.6 5.22e-03  -6.1 1.00e+00 1.00e+00h  1

Number of Iterations....: 155

                                   (scaled)                 (unscaled)
Objective...............:  -2.1062935173207986e-01   -2.1062935173207986e-01
Dual infeasibility......:   4.4044347315467120e-09    4.4044347315467120e-09
Constraint violation....:   9.9317570712714742e-09    9.9317570712714742e-09
Complementarity.........:   3.9383953716985743e-09    3.9383953716985743e-09
Overall NLP error.......:   9.9317570712714742e-09    9.9317570712714742e-09


Number of objective function evaluations             = 736
Number of objective gradient evaluations             = 127
Number of equality constraint evaluations            = 736
Number of inequality constraint evaluations          = 0
Number of equality constraint Jacobian evaluations   = 157
Number of inequality constraint Jacobian evaluations = 0
Number of Lagrangian Hessian evaluations             = 155
Total CPU secs in IPOPT (w/o function evaluations)   =     74.535
Total CPU secs in NLP function evaluations           =     13.111

EXIT: Optimal Solution Found.

************************ CUTEst statistics ************************


 Package used            :  IPOPT
 Problem                 :  A2NSDSSL  
 # variables             =           60012
 # constraints           =           20004
 # objective functions   =        0.8640000E+03
 # objective gradients   =        0.1280000E+03
 # objective Hessians    =        0.1540000E+03
 # Hessian-vector prdct  =        0.0000000E+00
 # constraints functions =        0.8950000E+03
 # constraints gradients =        0.1590000E+03
 # constraints Hessians  =        0.1540000E+03
 Exit code               =               0
 Final f                 =       -2.1062935173207986D-01
 Bounds feasibility      =        9.9999998809174828D-09
 Set up time             =            0.78 seconds
 Solve time              =          177.66 seconds


******************************************************************

